p cnf 10 35 
c Factors encoded in variables 1-6 and 7-10
c Target number: 517
c Factors: 47 x 11
-5 -9 0
-4 -3 -2 8 0
-5 -4 3 -9 0
-4 -9 -8 0
4 3 2 0
-5 4 2 -9 0
5 3 9 0
5 -4 9 8 0
4 -3 -2 0
4 2 -8 0
5 4 9 -8 0
4 -3 8 0
-5 -4 -3 -9 0
1 0
-5 -4 -3 -2 -8 0
-5 -4 -3 -2 -9 0
5 -4 8 0
-5 4 0
-5 -2 0
7 0
-5 9 0
-5 -3 -2 8 0
5 4 0
5 4 8 0
4 9 8 0
10 0
-3 -9 0
-5 -4 -3 -2 -9 -8 0
-5 4 3 2 9 8 0
-2 8 0
3 9 0
6 0
-5 -4 -8 0
4 -9 -8 0
2 -8 0
